p edge 50 135 5
v 8 5 15 23 30 32 34 47 49
v 6 2 20 28 29 36 42
v 15 1 3 6 9 10 12 13 14 18 22 37 43 46 48 50
v 10 4 16 26 27 31 33 35 40 41 44
v 11 7 8 11 17 19 21 24 25 38 39 45
e 1 2
e 1 9
e 1 10
e 1 12
e 1 14
e 1 21
e 1 25
e 1 26
e 1 28
e 1 36
e 1 37
e 1 43
e 2 18
e 2 22
e 2 33
e 2 37
e 2 48
e 3 19
e 3 33
e 3 35
e 3 40
e 4 12
e 4 13
e 4 14
e 4 16
e 4 19
e 4 22
e 4 25
e 4 31
e 4 38
e 5 14
e 5 35
e 5 43
e 6 24
e 6 27
e 6 47
e 7 43
e 8 17
e 8 26
e 8 31
e 8 34
e 8 39
e 8 50
e 9 10
e 9 15
e 9 23
e 9 30
e 9 34
e 9 35
e 9 44
e 9 50
e 10 11
e 10 15
e 10 17
e 10 23
e 11 13
e 11 21
e 11 33
e 11 50
e 12 13
e 12 22
e 12 23
e 12 26
e 12 50
e 13 22
e 13 45
e 13 46
e 14 24
e 14 36
e 14 44
e 14 46
e 15 16
e 15 35
e 16 25
e 16 33
e 16 37
e 16 50
e 17 22
e 17 31
e 18 20
e 18 24
e 18 50
e 19 22
e 20 27
e 20 36
e 20 42
e 20 50
e 21 28
e 21 29
e 21 37
e 21 39
e 21 41
e 21 47
e 22 25
e 22 38
e 22 48
e 23 38
e 24 30
e 24 37
e 24 38
e 24 40
e 24 42
e 24 43
e 25 26
e 25 32
e 25 45
e 26 30
e 26 31
e 26 33
e 26 42
e 27 30
e 27 31
e 28 32
e 29 33
e 29 39
e 30 37
e 31 33
e 31 43
e 32 36
e 33 43
e 34 43
e 34 44
e 34 47
e 35 50
e 36 40
e 36 49
e 39 42
e 39 44
e 40 41
e 40 46
e 40 49
e 41 46
e 41 48
e 45 49
e 46 47
